n_res = 4;
rcap = [15, 16, 57, 88];
rtype = [1, 1, 2, 2];
n_tasks = 16;
modes = [ {1, 2, 3}, {4, 5, 6}, {7, 8, 9}, {10, 11, 12}, {13, 14, 15}, {16, 17, 18}, {19, 20, 21}, {22, 23, 24}, {25, 26, 27}, {28, 29, 30}, {31, 32, 33}, {34, 35, 36}, {37, 38, 39}, {40, 41, 42}, {43, 44, 45}, {46, 47, 48} ];
succ = [ {6, 10}, {5, 6, 9}, {4, 10, 13}, {7, 14}, {8, 12, 15}, {8}, {8, 11}, {16}, {11, 13}, {12, 14, 15}, {12, 15}, {16}, {14, 16}, {}, {}, {} ];
n_opt = 48;
dur = [1, 6, 9, 6, 8, 10, 4, 6, 8, 1, 4, 7, 8, 8, 9, 5, 7, 9, 2, 6, 10, 1, 5, 10, 1, 6, 10, 5, 5, 8, 1, 4, 5, 1, 2, 4, 8, 9, 10, 2, 7, 8, 3, 6, 6, 2, 5, 6];
rreq = [|  2,  2,  1,  6,  6,  5,  5,  5,  4,  4,  4,  4,  6,  7,  5,  5,  4,  4,  9,  8,  6,  5,  4,  4,  2,  2,  2,  7,  5,  3,  8,  7,  5,  6,  6,  5,  7,  7,  7, 10,  8,  8,  5,  1,  3,  1,  1,  1
        |  4,  3,  3,  6,  6,  4,  8,  8,  8,  8,  6,  5,  9,  9,  9,  8,  5,  5,  6,  5,  2,  4,  2,  1,  6,  6,  5,  8,  8,  7,  7,  3,  3,  7,  6,  6,  2,  2,  2,  7,  6,  5,  2,  2,  1,  6,  6,  5
        |  4,  2,  1,  6,  3,  2,  4,  3,  3,  1,  1,  1,  7,  6,  4,  5,  3,  3,  2,  1,  1,  3,  2,  1,  7,  6,  3,  9,  9,  9,  6,  4,  1,  8,  7,  4,  4,  4,  3,  5,  4,  2,  5,  5,  3,  8,  8,  7
        | 10,  9,  9,  7,  6,  5,  8,  6,  6,  4,  4,  4,  8,  8,  7,  9,  6,  4,  6,  5,  3,  7,  6,  6,  7,  5,  1,  7,  8,  7,  8,  7,  4,  7,  6,  4,  5,  4,  1,  9,  8,  8,  7,  6,  6,  9,  7,  3 |];
